(set-logic HORN)
(declare-fun state (Int (Array Int Int) (Array Int Int) (Array Int Int) (Array Int Int) Int Int (Array Int Int) (Array Int Int) Int Int Int Int Int Int Int Int Int Int Int Bool Int Int Int Int Int Bool Int Int Int Int Int Int Int Int Int Int Int Int Int Int Int Int Int Bool Int Int Int Int Int Int Bool Bool Int Int Int Int Int Int Int Int Int Bool Bool Bool Bool Bool Bool Bool Int (Array Int Int) Int (Array Int Int)) Bool)
(assert (forall ((|A_3| Int) (|L2_2| (Array Int Int)) (|C_3| (Array Int Int)) (|D_3| (Array Int Int)) (|E_3| (Array Int Int)) (|F_3| Int) (|G_3| Int) (|H_3| (Array Int Int)) (|I_3| (Array Int Int)) (|J_3| Int) (|K_3| Int) (|L_3| Int) (|M_3| Int) (|N_3| Int) (|O_3| Int) (|P_3| Int) (|Q_3| Int) (|R_3| Int) (|M2_2| Int) (|T_3| Int) (|U_3| Bool) (|V_3| Int) (|W_3| Int) (|X_3| Int) (|Y_3| Int) (|Z_3| Int) (|A1_3| Bool) (|B1_3| Int) (|C1_3| Int) (|D1_3| Int) (|E1_3| Int) (|F1_3| Int) (|G1_3| Int) (|H1_3| Int) (|I1_3| Int) (|J1_3| Int) (|K1_3| Int) (|L1_3| Int) (|M1_3| Int) (|N1_3| Int) (|N2_2| Int) (|P1_3| Int) (|Q1_3| Int) (|R1_3| Int) (|S1_3| Bool) (|O2_1| Int) (|U1_3| Int) (|V1_3| Int) (|W1_3| Int) (|X1_3| Int) (|Y1_3| Int) (|Z1_3| Bool) (|A2_3| Bool) (|B2_3| Int) (|P2_0| Int) (|D2_3| Int) (|E2_3| Int) (|F2_3| Int) (|G2_3| Int) (|H2_3| Int) (|I2_3| Int) (|J2_3| Int) (|K2_3| Bool) (|.loc.6| Bool) (|.loc.7| Bool) (|.loc.8| Bool) (|.loc.9| Bool) (|.loc.10| Bool) (|L2_21| Bool) (|O2_0| Int) (|L2_0| (Array Int Int)) (|L2_15| Int) (|L2_1| (Array Int Int)) (|.x.646| Int) (|.x.644| (Array Int Int)) (|.x.642| Int) (|.x.640| (Array Int Int)) (|.x.636| Int) (|.x.638| (Array Int Int)) (|.x.690| Int) (|.x.692| Int) (|.x.698| Bool) (|.x.637| (Array Int Int)) (|.x.650| Int) (|.x.651| Int) (|.x.657| Int) (|.x.659| Int) (|.x.664| Int) (|.x.665| Int) (|.x.666| Int) (|.x.667| Int) (|.x.668| Int) (|.x.671| Int) (|.x.674| Int) (|.x.678| Int) (|.x.682| Int) (|.x.683| Int) (|.x.684| Int) (|.x.691| Int) (|.x.694| Int) (|.x.696| Int) (|.x.660| Int) (|.x.647| Int) (|.x.681| Int) (|.x.676| Int) (|.x.654| Int) (|.x.672| Int) (|.x.655| Int) (|.x.675| Int) (|.loc.11| Bool) (|.x.693| Int) (|.x.680| Bool) (|.x.695| Int) (|.loc.15| Bool) (|.loc.12| Bool) (|.loc.13| Bool) (|.loc.14| Bool) (|.x.653| Int) (|.x.658| Int) (|.x.639| (Array Int Int)) (|.x.677| Int) (|.x.652| Int) (|.x.649| Int) (|.x.648| Int) (|.x.645| Int) (|.x.643| (Array Int Int)) (|.x.641| Int) (|.x.656| Bool) (|.x.661| Int) (|.x.662| Bool) (|.x.663| Int) (|.x.669| Int) (|.x.670| Int) (|.x.673| Int) (|.x.679| Int) (|.x.685| Int) (|.x.686| Int) (|.x.687| Bool) (|.x.688| Bool) (|.x.689| Int) (|.x.697| Int) (|.xtv.1| Bool) (|.xtv.2| Int) (|.xtv.3| (Array Int Int)) (|.xtv.4| Int) (|.xtv.5| (Array Int Int))) (=> (and (and (and (and (and .loc.7 (not .loc.6)) (not .loc.8)) (not .loc.9)) (not .loc.10)) (and (and (and (and (and (= D_3 E_3) (not K2_3)) (= J_3 K_3)) (= F_3 G_3)) (= H_3 I_3)) (= L2_2 C_3))) (state |A_3| |L2_2| |C_3| |D_3| |E_3| |F_3| |G_3| |H_3| |I_3| |J_3| |K_3| |L_3| |M_3| |N_3| |O_3| |P_3| |Q_3| |R_3| |M2_2| |T_3| |U_3| |V_3| |W_3| |X_3| |Y_3| |Z_3| |A1_3| |B1_3| |C1_3| |D1_3| |E1_3| |F1_3| |G1_3| |H1_3| |I1_3| |J1_3| |K1_3| |L1_3| |M1_3| |N1_3| |N2_2| |P1_3| |Q1_3| |R1_3| |S1_3| |O2_1| |U1_3| |V1_3| |W1_3| |X1_3| |Y1_3| |Z1_3| |A2_3| |B2_3| |P2_0| |D2_3| |E2_3| |F2_3| |G2_3| |H2_3| |I2_3| |J2_3| |K2_3| |.loc.6| |.loc.7| |.loc.8| |.loc.9| |.loc.10| |L2_21| |O2_0| |L2_0| |L2_15| |L2_1|))))
(assert (forall ((|A_3| Int) (|L2_2| (Array Int Int)) (|C_3| (Array Int Int)) (|D_3| (Array Int Int)) (|E_3| (Array Int Int)) (|F_3| Int) (|G_3| Int) (|H_3| (Array Int Int)) (|I_3| (Array Int Int)) (|J_3| Int) (|K_3| Int) (|L_3| Int) (|M_3| Int) (|N_3| Int) (|O_3| Int) (|P_3| Int) (|Q_3| Int) (|R_3| Int) (|M2_2| Int) (|T_3| Int) (|U_3| Bool) (|V_3| Int) (|W_3| Int) (|X_3| Int) (|Y_3| Int) (|Z_3| Int) (|A1_3| Bool) (|B1_3| Int) (|C1_3| Int) (|D1_3| Int) (|E1_3| Int) (|F1_3| Int) (|G1_3| Int) (|H1_3| Int) (|I1_3| Int) (|J1_3| Int) (|K1_3| Int) (|L1_3| Int) (|M1_3| Int) (|N1_3| Int) (|N2_2| Int) (|P1_3| Int) (|Q1_3| Int) (|R1_3| Int) (|S1_3| Bool) (|O2_1| Int) (|U1_3| Int) (|V1_3| Int) (|W1_3| Int) (|X1_3| Int) (|Y1_3| Int) (|Z1_3| Bool) (|A2_3| Bool) (|B2_3| Int) (|P2_0| Int) (|D2_3| Int) (|E2_3| Int) (|F2_3| Int) (|G2_3| Int) (|H2_3| Int) (|I2_3| Int) (|J2_3| Int) (|K2_3| Bool) (|.loc.6| Bool) (|.loc.7| Bool) (|.loc.8| Bool) (|.loc.9| Bool) (|.loc.10| Bool) (|L2_21| Bool) (|O2_0| Int) (|L2_0| (Array Int Int)) (|L2_15| Int) (|L2_1| (Array Int Int)) (|.x.646| Int) (|.x.644| (Array Int Int)) (|.x.642| Int) (|.x.640| (Array Int Int)) (|.x.636| Int) (|.x.638| (Array Int Int)) (|.x.690| Int) (|.x.692| Int) (|.x.698| Bool) (|.x.637| (Array Int Int)) (|.x.650| Int) (|.x.651| Int) (|.x.657| Int) (|.x.659| Int) (|.x.664| Int) (|.x.665| Int) (|.x.666| Int) (|.x.667| Int) (|.x.668| Int) (|.x.671| Int) (|.x.674| Int) (|.x.678| Int) (|.x.682| Int) (|.x.683| Int) (|.x.684| Int) (|.x.691| Int) (|.x.694| Int) (|.x.696| Int) (|.x.660| Int) (|.x.647| Int) (|.x.681| Int) (|.x.676| Int) (|.x.654| Int) (|.x.672| Int) (|.x.655| Int) (|.x.675| Int) (|.loc.11| Bool) (|.x.693| Int) (|.x.680| Bool) (|.x.695| Int) (|.loc.15| Bool) (|.loc.12| Bool) (|.loc.13| Bool) (|.loc.14| Bool) (|.x.653| Int) (|.x.658| Int) (|.x.639| (Array Int Int)) (|.x.677| Int) (|.x.652| Int) (|.x.649| Int) (|.x.648| Int) (|.x.645| Int) (|.x.643| (Array Int Int)) (|.x.641| Int) (|.x.656| Bool) (|.x.661| Int) (|.x.662| Bool) (|.x.663| Int) (|.x.669| Int) (|.x.670| Int) (|.x.673| Int) (|.x.679| Int) (|.x.685| Int) (|.x.686| Int) (|.x.687| Bool) (|.x.688| Bool) (|.x.689| Int) (|.x.697| Int) (|.xtv.1| Bool) (|.xtv.2| Int) (|.xtv.3| (Array Int Int)) (|.xtv.4| Int) (|.xtv.5| (Array Int Int))) (=> (and (state |A_3| |L2_2| |C_3| |D_3| |E_3| |F_3| |G_3| |H_3| |I_3| |J_3| |K_3| |L_3| |M_3| |N_3| |O_3| |P_3| |Q_3| |R_3| |M2_2| |T_3| |U_3| |V_3| |W_3| |X_3| |Y_3| |Z_3| |A1_3| |B1_3| |C1_3| |D1_3| |E1_3| |F1_3| |G1_3| |H1_3| |I1_3| |J1_3| |K1_3| |L1_3| |M1_3| |N1_3| |N2_2| |P1_3| |Q1_3| |R1_3| |S1_3| |O2_1| |U1_3| |V1_3| |W1_3| |X1_3| |Y1_3| |Z1_3| |A2_3| |B2_3| |P2_0| |D2_3| |E2_3| |F2_3| |G2_3| |H2_3| |I2_3| |J2_3| |K2_3| |.loc.6| |.loc.7| |.loc.8| |.loc.9| |.loc.10| |L2_21| |O2_0| |L2_0| |L2_15| |L2_1|) (let ((.def_83 (not .loc.6))) (let ((.def_85 (not .loc.8))) (let ((.def_87 (not .loc.9))) (let ((.def_89 (not .loc.10))) (let ((.def_140 (= O_3 .x.650))) (let ((.def_143 (= P_3 .x.651))) (let ((.def_146 (= V_3 .x.657))) (let ((.def_149 (= X_3 .x.659))) (let ((.def_152 (= C1_3 .x.664))) (let ((.def_155 (= D1_3 .x.665))) (let ((.def_158 (= E1_3 .x.666))) (let ((.def_161 (= F1_3 .x.667))) (let ((.def_164 (= G1_3 .x.668))) (let ((.def_167 (= J1_3 .x.671))) (let ((.def_170 (= M1_3 .x.674))) (let ((.def_173 (= Q1_3 .x.678))) (let ((.def_176 (= U1_3 .x.682))) (let ((.def_179 (= V1_3 .x.683))) (let ((.def_182 (= W1_3 .x.684))) (let ((.def_185 (= D2_3 .x.691))) (let ((.def_188 (= G2_3 .x.694))) (let ((.def_191 (= I2_3 .x.696))) (let ((.def_193 (= K2_3 .x.698))) (let ((.def_197 (not .loc.7))) (let ((.def_213 (and (= .x.694 (ite (<= (+ .x.660 (* (- 1) .x.647)) (- 1)) 0 1)) (= .x.671 .x.694)))) (let ((.def_215 (= .x.671 0))) (let ((.def_223 (= E2_3 .x.692))) (let ((.def_225 (= P2_0 .x.690))) (let ((.def_228 (= O2_1 .x.681))) (let ((.def_231 (= N2_2 .x.676))) (let ((.def_234 (= M2_2 .x.654))) (let ((.def_236 (= L2_2 .x.637))) (let ((.def_257 (<= Y_3 L_3))) (let ((.def_268 (or K2_3 (and (= .x.657 .x.674) (and (= .x.650 .x.659) (and (= .x.666 .x.684) (and (= (+ W_3 (+ Y_3 (* (- 1) .x.667))) 0) (and (= K1_3 .x.674) (and (= (+ L_3 (+ (* (- 1) Y_3) (* (- 1) .x.684))) (- 1)) (and (= .x.665 .x.667) (and (= .x.664 .x.696) (and (= P1_3 .x.696) (and (= N1_3 .x.659) .def_257))))))))))))) (let ((.def_272 (= K1_3 .x.672))) (let ((.def_274 (= T_3 .x.655))) (let ((.def_277 (= N1_3 .x.675))) (let ((.def_285 (= .x.637 (store L2_2 K1_3 0)))) (let ((.def_288 (and .def_140 .def_143))) (let ((.def_294 (and .def_161 (and .def_158 (and .def_155 (and .def_152 (and .def_149 (and .def_146 .def_288)))))))) (let ((.def_298 (and .def_173 (and .def_170 (and .def_167 (and .def_164 .def_294)))))) (let ((.def_316 (not .loc.11))) (let ((.def_321 (= F2_3 .x.693))) (let ((.def_323 (= S1_3 .x.680))) (let ((.def_326 (= H2_3 .x.695))) (let ((.def_331 (not .loc.12))) (let ((.def_334 (not .loc.13))) (let ((.def_337 (not .loc.14))) (let ((.def_345 (select .x.639 .x.677))) (let ((.def_346 (select .def_345 (+ .x.653 .x.658)))) (let ((.def_349 (= L2_15 0))) (let ((.def_386 (not .loc.15))) (let ((.def_392 (= .x.655 (- 1)))) (let ((.def_424 (= Q_3 .x.652))) (let ((.def_426 (= N_3 .x.649))) (let ((.def_428 (= M_3 .x.648))) (let ((.def_429 (= L_3 .x.647))) (let ((.def_431 (= J_3 .x.645))) (let ((.def_433 (= H_3 .x.643))) (let ((.def_434 (= D_3 .x.639))) (let ((.def_436 (= F_3 .x.641))) (let ((.def_439 (and .def_431 (and .def_433 (and .def_434 .def_436))))) (let ((.def_442 (and .def_426 (and .def_428 (and .def_429 .def_439))))) (let ((.def_444 (= R_3 .x.653))) (let ((.def_445 (and (and .def_424 .def_442) .def_444))) (let ((.def_447 (= U_3 .x.656))) (let ((.def_449 (= W_3 .x.658))) (let ((.def_451 (= Y_3 .x.660))) (let ((.def_454 (= Z_3 .x.661))) (let ((.def_457 (= A1_3 .x.662))) (let ((.def_460 (= B1_3 .x.663))) (let ((.def_463 (= H1_3 .x.669))) (let ((.def_466 (= I1_3 .x.670))) (let ((.def_469 (= L1_3 .x.673))) (let ((.def_471 (= P1_3 .x.677))) (let ((.def_474 (= R1_3 .x.679))) (let ((.def_477 (= X1_3 .x.685))) (let ((.def_480 (= Y1_3 .x.686))) (let ((.def_483 (= Z1_3 .x.687))) (let ((.def_486 (= A2_3 .x.688))) (let ((.def_489 (= B2_3 .x.689))) (let ((.def_492 (= J2_3 .x.697))) (let ((.def_498 (not (<= .x.636 .x.681)))) (let ((.def_500 (= .x.647 (- 1)))) (let ((.def_502 (= .x.654 .x.648))) (let ((.def_504 (= .x.653 (- 1)))) (let ((.def_506 (= .x.658 .x.648))) (let ((.def_508 (= .x.660 0))) (let ((.def_510 (= .x.681 .x.663))) (let ((.def_512 (= .x.677 .x.663))) (let ((.def_515 (not (= .x.681 0)))) (let ((.def_517 (= O2_0 0))) (let ((.def_521 (= .x.654 0))) (let ((.def_524 (= (select L2_0 .x.681) 0))) (let ((.def_526 (store L2_0 .x.681 1))) (let ((.def_531 (store H_3 .x.681 9))) (let ((.def_544 (= .x.639 (store D_3 .x.681 (store (select D_3 .x.681) (+ .x.654 8) 0))))) (let ((.def_547 (= .x.658 0))) (let ((.def_549 (= .x.677 0))) (let ((.def_567 (and .def_87 (and .def_85 (and .def_83 (and .loc.7 (and .def_193 (and .def_191 (and .def_188 (and .def_185 (and .def_182 (and .def_179 (and .def_173 (and .def_170 (and .def_167 .def_294))))))))))))))) (let ((.def_583 (or K2_3 (and (and (= .x.645 0) (= .x.641 0)) (= L2_0 (store L2_2 0 0)))))) (let ((.def_637 (and .loc.6 (and .def_193 (and .def_492 (and .def_191 (and .def_326 (and .def_188 (and .def_321 (and .def_185 (and .def_489 (and .def_486 (and .def_483 (and .def_480 (and .def_477 (and .def_182 (and .def_179 (and .def_176 (and .def_323 (and .def_474 (and .def_173 (and .def_471 (and .def_277 (and .def_170 (and .def_469 (and .def_272 (and .def_167 (and .def_466 (and .def_463 (and .def_164 (and .def_161 (and .def_158 (and .def_155 (and .def_152 (and .def_460 (and .def_457 (and .def_454 (and .def_451 (and .def_149 (and .def_449 (and .def_146 (and .def_447 (and .def_274 (and .def_444 (and .def_424 (and .def_143 (and .def_140 (and .def_426 (and .def_428 (and .def_429 (and .def_431 (and .def_433 (and .def_436 (and K2_3 .def_434)))))))))))))))))))))))))))))))))))))))))))))))))))))) (let ((.def_659 (and .def_143 (and .def_140 .def_442)))) (let ((.def_660 (and .def_424 .def_659))) (let ((.def_662 (and .def_274 (and .def_444 .def_660)))) (let ((.def_666 (and .def_149 (and .def_449 (and .def_146 (and .def_447 .def_662)))))) (let ((.def_667 (and .def_451 .def_666))) (let ((.def_668 (and .def_454 .def_667))) (let ((.def_675 (and .def_164 (and .def_161 (and .def_158 (and .def_155 (and .def_152 (and .def_460 (and .def_457 .def_668))))))))) (let ((.def_685 (and .def_474 (and .def_173 (and .def_471 (and .def_277 (and .def_170 (and .def_469 (and .def_272 (and .def_167 (and .def_466 (and .def_463 .def_675)))))))))))) (let ((.def_719 (= (+ L_3 (* (- 1) .x.647)) 1))) (let ((.def_722 (and .def_428 .def_439))) (let ((.def_800 (and .def_272 (and .def_167 (and .def_466 (and .def_463 (and .def_164 (and .def_161 (and .def_158 (and .def_155 (and .def_152 (and .def_460 (and .def_457 (and .def_454 (and .def_451 (and .def_149 (and .def_449 (and .def_146 .def_662)))))))))))))))))) (let ((.def_821 (and .def_193 (and .def_492 (and .def_191 (and .def_326 (and .def_188 (and .def_321 (and .def_185 (and .def_489 (and .def_486 (and .def_483 (and .def_480 (and .def_477 (and .def_182 (and .def_179 (and .def_176 (and .def_323 (and .def_474 (and .def_173 (and .def_471 (and .def_277 (and .def_170 .def_800))))))))))))))))))))))) (let ((.def_885 (not (<= L_3 0)))) (let ((.def_889 (select .def_345 (+ .x.647 .x.658)))) (let ((.def_1051 (and .def_480 (and .def_477 (and .def_182 (and .def_179 (and .def_176 (and .def_323 .def_685)))))))) (let ((.def_1052 (and .def_483 .def_1051))) (let ((.def_1053 (and .def_486 .def_1052))) (let ((.def_1066 (and .loc.11 (and .def_87 (and .def_197 (and .def_83 (and .loc.8 (and .def_193 (and .def_492 (and .def_191 (and .def_326 (and .def_188 (and .def_321 (and .def_185 (and .def_489 .def_1053))))))))))))))) (let ((.def_1112 (and .loc.6 (and .def_193 (and .def_492 (and .def_191 (and .def_326 (and .def_188 (and .def_321 (and .def_185 (and .def_489 (and .def_486 (and .def_477 (and .def_182 (and .def_179 (and .def_176 (and .def_323 (and .def_474 (and .def_173 (and .def_471 (and .def_277 (and .def_170 (and .def_469 (and .def_272 (and .def_167 (and .def_466 (and .def_463 (and .def_164 (and .def_161 (and .def_158 (and .def_155 (and .def_152 (and .def_460 .def_667))))))))))))))))))))))))))))))))) (let ((.def_1140 (and .def_193 (and .def_492 (and .def_191 (and .def_326 (and .def_188 (and .def_321 (and .def_185 (and .def_489 (and .def_486 .def_1051))))))))))) (let ((.def_1160 (select D_3 P1_3))) (let ((.def_1261 (or K2_3 (= .x.687 .def_885)))) (let ((.def_1265 (= .x.686 32))) (let ((.def_1268 (= .x.686 .def_889))) (let ((.def_1329 (not L2_21))) (let ((.def_1364 (and .def_451 (and .def_149 (and .def_449 (and .def_146 (and .def_447 (and .def_274 (and .def_444 (and .def_424 (and .def_143 (and .def_140 (and .def_426 .def_722))))))))))))) (let ((.def_1567 (= O2_0 34))) (let ((.def_1569 (= (+ Y_3 (* (- 1) .x.660)) (- 1)))) (let ((.def_1629 (select .def_1160 (+ W_3 Y_3)))) (let ((.def_1631 (or K2_3 (= O2_0 .def_1629)))) (let ((.def_1686 (and .def_193 (and .def_191 (and .def_326 (and .def_188 (and .def_321 (and .def_185 (and .def_489 (and .def_483 (and .def_480 (and .def_477 (and .def_182 (and .def_179 (and .def_176 (and .def_323 (and .def_474 (and .def_173 (and .def_471 (and .def_277 (and .def_170 (and .def_469 (and .def_272 (and .def_167 (and .def_466 .def_675))))))))))))))))))))))))) (let ((.def_1721 (= .x.697 32))) (let ((.def_1723 (= .x.697 .def_1629))) (and (and (= K_3 .x.646) (and (= I_3 .x.644) (and (= G_3 .x.642) (and (= E_3 .x.640) (and (= A_3 .x.636) (= C_3 .x.638)))))) (or (or (or (or (or (or (or (or (or (or (or (or (or (or (or (or (or (or (or (or (or (or (or (or (or (or (or (or (or (and (or (or (and (or (and (or (and .def_87 (and .def_85 (and (and .loc.10 (and (or (= .x.690 .x.692) .x.698) (and (and (and (and (and (and (and (and (and (and (and (and (and (and (and (and (and (and (and (or K2_3 (and (and (and (<= (- 2147483648) T_3) (<= T_3 2147483647)) (= .x.690 0)) (= (store L2_2 O2_1 0) .x.637))) .def_140) .def_143) .def_146) .def_149) .def_152) .def_155) .def_158) .def_161) .def_164) .def_167) .def_170) .def_173) .def_176) .def_179) .def_182) .def_185) .def_188) .def_191) .def_193))) .def_197))) (and (and (and (and (and (and (and (and (or K2_3 .def_213) (and (or K2_3 .def_215) (and .def_89 (and .loc.9 (and .loc.8 (and .loc.7 .x.698)))))) .def_223) .def_225) .def_228) .def_231) .def_234) .def_236) .def_268)) (and (and .def_83 (and (and .def_272 .def_274) .def_277)) .loc.11)) (and (or K2_3 (and (= .x.655 0) .def_285)) (and (and .def_234 (and .def_231 (and .def_228 (and .def_225 (and .def_223 (and .def_89 (and .loc.9 (and .loc.8 (and .loc.7 (and .loc.6 (and .def_193 (and .def_191 (and .def_188 (and .def_185 (and .def_182 (and .def_179 (and .def_176 .def_298))))))))))))))))) .def_316))) (and (and (and (and (and (and .def_321 .def_323) .def_326) .loc.15) .def_331) .def_334) .def_337)) (and (or .x.698 (= L2_15 .def_346)) (and (or .x.698 .def_349) (and (and .def_236 (and .def_234 (and .def_231 (and .def_228 (and .def_225 (and .def_223 (and .def_89 (and .loc.14 (and .loc.13 (and .loc.12 (and .loc.11 (and .def_87 (and .def_85 (and .def_197 (and .loc.6 (and .def_193 (and .def_191 (and .def_188 (and .def_185 (and .def_182 (and .def_179 (and .def_176 (and .def_173 (and .def_277 (and .def_170 (and .def_272 (and .def_167 (and .def_164 (and .def_161 (and .def_158 (and .def_155 (and .def_152 (and .def_149 (and .def_146 (and .def_274 .def_288))))))))))))))))))))))))))))))))))) .def_386)))) (and (or K2_3 (and .def_285 (and (not .def_257) .def_392))) (and .def_316 (and .def_234 (and .def_231 (and .def_228 (and .def_225 (and .def_223 (and .def_89 (and .def_337 (and .def_334 (and .def_331 (and .loc.15 (and .def_83 (and .loc.9 (and .loc.8 (and .loc.7 (and .def_193 (and .def_191 (and .def_326 (and .def_188 (and .def_321 (and .def_185 (and .def_182 (and .def_179 (and .def_176 (and .def_298 .def_323))))))))))))))))))))))))))) (and (and (and (and (and (and (and (and (and (and (and (and (and (and (and (and (and .def_445 .def_447) .def_449) .def_451) .def_454) .def_457) .def_460) .def_463) .def_466) .def_469) .def_471) .def_474) .def_477) .def_480) .def_483) .def_486) .def_489) .def_492)) (and (and (or .x.698 (and (and (and (and (and (and (and (and (and (and (and (and (and (and (and (and (and (not (<= .x.636 L2_15)) .def_498) .def_500) .def_502) .def_504) .def_506) .def_508) .def_510) .def_512) .def_515) .def_517) (not .def_349)) .def_521) .def_524) (= (select .def_526 L2_15) 0)) (= .x.643 (store .def_531 L2_15 2))) (= L2_1 (store .def_526 L2_15 1))) .def_544)) (and (or .x.698 (and (and (and .def_392 .def_547) .def_549) (= .x.637 (store L2_1 L2_15 0)))) (and .def_316 (and .def_223 (and .def_89 (and .def_337 (and .def_334 (and .def_331 (and .loc.15 .def_567))))))))) .def_583)) (and .def_386 (and .def_236 (and .def_234 (and .def_231 (and .def_228 (and .def_225 (and .def_223 (and .def_89 (and .loc.14 (and .loc.13 (and .loc.12 (and .loc.11 (and .def_87 (and .def_85 (and .loc.7 .def_637)))))))))))))))) (and (or .x.698 (= O2_0 .def_346)) (and (or .x.698 (not .def_517)) (and .def_386 (and .def_236 (and .def_234 (and .def_231 (and .def_228 (and .def_225 (and .def_223 (and .def_89 (and .def_337 (and .def_334 (and .loc.12 (and .loc.11 (and .def_87 (and .def_85 (and .def_197 (and .loc.6 (and .def_193 (and .def_492 (and .def_191 (and .def_188 (and .def_185 (and .def_489 (and .def_486 (and .def_483 (and .def_480 (and .def_477 (and .def_182 (and .def_179 (and .def_176 .def_685)))))))))))))))))))))))))))))))) (and (or K2_3 (and U_3 .def_719)) (and .def_386 (and .def_316 (and .def_236 (and .def_234 (and .def_231 (and .def_228 (and .def_225 (and .def_223 (and .def_89 (and .loc.14 (and .loc.13 (and .loc.12 (and .def_197 (and .loc.9 (and .loc.8 (and .loc.6 (and .def_193 (and .def_492 (and .def_191 (and .def_326 (and .def_188 (and .def_321 (and .def_185 (and .def_489 (and .def_486 (and .def_483 (and .def_480 (and .def_477 (and .def_182 (and .def_179 (and .def_176 (and .def_323 (and .def_474 (and .def_173 (and .def_471 (and .def_277 (and .def_170 (and .def_272 (and .def_167 (and .def_466 (and .def_463 (and .def_164 (and .def_161 (and .def_158 (and .def_155 (and .def_152 (and .def_460 (and .def_457 (and .def_454 (and .def_451 (and .def_149 (and .def_449 (and .def_146 (and .def_274 (and .def_444 (and .def_424 (and .def_143 (and .def_140 .def_722)))))))))))))))))))))))))))))))))))))))))))))))))))))))))))) (and (or K2_3 (not U_3)) (and .def_386 (and .def_316 (and .def_236 (and .def_234 (and .def_231 (and .def_228 (and .def_225 (and .def_223 (and .def_89 (and .loc.14 (and .loc.13 (and .loc.12 (and .def_197 (and .loc.9 (and .loc.8 (and .loc.6 .def_821)))))))))))))))))) (and (or .x.698 (and .def_544 (and (and (and (and .def_524 (and .def_521 (and (and (and .def_515 (and .def_512 (and .def_510 (and .def_508 (and .def_506 (and .def_504 (and .def_502 (and .def_500 (and .def_498 (not (<= .x.636 .x.672))))))))))) (= .x.675 0)) (not (= .x.672 0))))) (= (select .def_526 .x.672) 0)) (= .x.643 (store .def_531 .x.672 2))) (= .x.637 (store .def_526 .x.672 1))))) (and (or (or .x.698 (not .def_547)) (not .def_549)) (and .def_583 (and .def_386 (and .def_223 (and .def_89 (and .def_337 (and .def_334 (and .loc.12 (and .loc.11 .def_567))))))))))) (and (or K2_3 (= L2_21 .def_885)) (and (or .x.698 (and (= .x.673 .def_889) (and L2_21 (= .x.656 (= .x.673 34))))) (and .def_386 (and .def_236 (and .def_234 (and .def_231 (and .def_228 (and .def_225 (and .def_223 (and .def_89 (and .def_331 (and .loc.14 (and .loc.13 (and .loc.11 (and .def_197 (and .def_83 (and .loc.9 (and .loc.8 .def_821))))))))))))))))))) (and (or K2_3 (= .x.656 .def_885)) (and (or .x.698 (not .x.656)) (and .def_386 (and .def_236 (and .def_234 (and .def_231 (and .def_228 (and .def_225 (and .def_223 (and .def_89 (and .def_331 (and .loc.14 (and .loc.13 (and .loc.11 (and .def_197 (and .def_83 (and .loc.9 (and .loc.8 (and .def_193 (and .def_492 (and .def_191 (and .def_326 (and .def_188 (and .def_321 (and .def_185 (and .def_489 (and .def_486 (and .def_483 (and .def_480 (and .def_477 (and .def_182 (and .def_179 (and .def_176 (and .def_323 (and .def_474 (and .def_173 (and .def_471 (and .def_277 (and .def_170 (and .def_469 .def_800))))))))))))))))))))))))))))))))))))))))) (and (or K2_3 (= .x.639 (store D_3 K1_3 (store (select D_3 K1_3) (+ (+ L_3 (+ (* (- 1) Y_3) N1_3)) 1) 0)))) (and (or .x.698 (= (+ .x.660 (* (- 1) .x.653)) 1)) (and .def_386 (and .def_236 (and .def_234 (and .def_231 (and .def_228 (and .def_225 (and .def_223 (and .def_89 (and .def_337 (and .def_334 (and .def_331 (and .loc.11 (and .def_87 (and .def_85 (and .def_197 (and .def_83 (and .def_193 (and .def_492 (and .def_191 (and .def_326 (and .def_188 (and .def_321 (and .def_185 (and .def_489 (and .def_486 (and .def_483 (and .def_480 (and .def_477 (and .def_182 (and .def_179 (and .def_176 (and .def_323 (and .def_474 (and .def_173 (and .def_471 (and .def_277 (and .def_170 (and .def_469 (and .def_272 (and .def_167 (and .def_466 (and .def_463 (and .def_164 (and .def_161 (and .def_158 (and .def_155 (and .def_152 (and .def_460 (and .def_457 (and .def_454 (and .def_149 (and .def_449 (and .def_146 (and .def_447 (and .def_274 (and .def_444 (and .def_424 (and .def_143 (and .def_140 (and .def_426 (and .def_428 (and .def_429 (and .def_431 (and .def_433 .def_436))))))))))))))))))))))))))))))))))))))))))))))))))))))))))))))))))) (and (or K2_3 (not S1_3)) (and .def_386 (and .def_236 (and .def_234 (and .def_231 (and .def_228 (and .def_225 (and .def_223 (and .def_89 (and .def_337 (and .def_334 (and .def_331 .def_1066))))))))))))) (and (or K2_3 (not Z1_3)) (and .def_386 (and .def_316 (and .def_236 (and .def_234 (and .def_231 (and .def_228 (and .def_225 (and .def_223 (and .def_89 (and .def_331 (and .loc.14 (and .loc.13 (and .def_85 (and .loc.9 (and .loc.7 .def_1112))))))))))))))))) (and (or K2_3 (= A1_3 .x.687)) (and .def_386 (and .def_236 (and .def_234 (and .def_231 (and .def_228 (and .def_225 (and .def_223 (and .def_89 (and .def_334 (and .loc.14 (and .loc.12 (and .loc.11 (and .def_85 (and .def_83 (and .loc.9 (and .loc.7 .def_1140)))))))))))))))))) (and (or K2_3 (and (= .x.695 (select .def_1160 (+ W_3 .x.653))) (and (= .x.680 (= .x.695 0)) (= (+ R_3 (* (- 1) .x.653)) (- 1))))) (and .def_386 (and .def_316 (and .def_236 (and .def_234 (and .def_231 (and .def_228 (and .def_225 (and .def_223 (and .def_89 (and .def_337 (and .def_331 (and .loc.13 (and .def_87 (and .def_85 (and .loc.7 (and .loc.6 (and .def_193 (and .def_492 (and .def_191 (and .def_188 (and .def_321 (and .def_185 (and .def_489 (and .def_486 (and .def_483 (and .def_480 (and .def_477 (and .def_182 (and .def_179 (and .def_176 (and .def_173 (and .def_471 (and .def_277 (and .def_170 (and .def_469 (and .def_272 (and .def_167 (and .def_466 (and .def_463 (and .def_164 (and .def_161 (and .def_158 (and .def_155 (and .def_152 (and .def_460 (and .def_457 (and .def_454 (and .def_451 (and .def_149 (and .def_449 (and .def_146 (and .def_447 (and .def_274 .def_660))))))))))))))))))))))))))))))))))))))))))))))))))))))) (and .def_386 (and .def_316 (and .def_236 (and .def_234 (and .def_231 (and .def_228 (and .def_225 (and .def_223 (and .def_89 (and .def_331 (and .loc.14 (and .loc.13 (and .def_85 (and .def_197 (and .loc.9 .def_637)))))))))))))))) (and (and (or .x.698 (not .x.687)) (and .def_386 (and .def_236 (and .def_234 (and .def_231 (and .def_228 (and .def_225 (and .def_223 (and .def_89 (and .def_334 (and .loc.14 (and .loc.12 (and .loc.11 (and .def_85 (and .def_197 (and .loc.9 (and .loc.6 .def_1140))))))))))))))))) .def_1261)) (and (or .x.698 (and (and .x.687 (= .x.662 .def_1265)) .def_1268)) (and (or .x.698 .x.662) (and .def_1261 (and .def_386 (and .def_316 (and .def_236 (and .def_234 (and .def_231 (and .def_228 (and .def_225 (and .def_223 (and .def_89 (and .def_334 (and .loc.14 (and .loc.12 (and .def_85 (and .def_197 (and .loc.9 (and .loc.6 (and .def_193 (and .def_492 (and .def_191 (and .def_326 (and .def_188 (and .def_321 (and .def_185 (and .def_489 (and .def_486 (and .def_477 (and .def_182 (and .def_179 (and .def_176 (and .def_323 (and .def_474 (and .def_173 (and .def_471 (and .def_277 (and .def_170 (and .def_469 (and .def_272 (and .def_167 (and .def_466 (and .def_463 (and .def_164 (and .def_161 (and .def_158 (and .def_155 (and .def_152 (and .def_460 .def_668)))))))))))))))))))))))))))))))))))))))))))))))))) (and (or .x.698 (and .def_1268 (and .x.687 (= L2_21 .def_1265)))) (and (or .x.698 (and (= .x.661 .def_889) (and (= .x.662 (= .x.661 9)) .def_1329))) (and .def_1261 (and .def_386 (and .def_316 (and .def_236 (and .def_234 (and .def_231 (and .def_228 (and .def_225 (and .def_223 (and .def_89 (and .def_334 (and .loc.14 (and .loc.12 (and .def_85 (and .def_197 (and .loc.9 .def_1112))))))))))))))))))) (and (or K2_3 (and Z1_3 .def_719)) (and .def_386 (and .def_236 (and .def_234 (and .def_231 (and .def_228 (and .def_225 (and .def_223 (and .def_89 (and .def_334 (and .def_331 (and .loc.14 (and .loc.11 (and .def_85 (and .loc.9 (and .loc.7 (and .loc.6 (and .def_193 (and .def_492 (and .def_191 (and .def_326 (and .def_188 (and .def_321 (and .def_185 (and .def_489 (and .def_486 (and .def_477 (and .def_182 (and .def_179 (and .def_176 (and .def_323 (and .def_474 (and .def_173 (and .def_471 (and .def_277 (and .def_170 (and .def_469 (and .def_272 (and .def_167 (and .def_463 (and .def_164 (and .def_161 (and .def_158 (and .def_155 (and .def_152 (and .def_460 .def_1364))))))))))))))))))))))))))))))))))))))))))))))) (and (or .x.698 .def_213) (and (or .x.698 (not .def_215)) (and .def_386 (and .def_316 (and .def_268 (and .def_236 (and .def_234 (and .def_231 (and .def_228 (and .def_225 (and .def_223 (and .def_89 (and .def_337 (and .def_334 (and .def_331 (and .def_83 (and .loc.9 (and .loc.8 (and .loc.7 (and .def_193 (and .def_492 (and .def_326 (and .def_321 (and .def_489 (and .def_486 (and .def_483 (and .def_480 (and .def_477 (and .def_323 (and .def_474 (and .def_471 (and .def_277 (and .def_469 (and .def_272 (and .def_466 (and .def_463 (and .def_460 (and .def_457 (and .def_454 (and .def_451 (and .def_449 (and .def_447 (and .def_274 .def_445)))))))))))))))))))))))))))))))))))))))))))) (and .def_386 (and .def_316 (and .def_268 (and .def_236 (and .def_234 (and .def_231 (and .def_228 (and .def_225 (and .def_223 (and .def_89 (and .def_337 (and .def_334 (and .def_331 (and .def_83 (and .loc.9 (and .loc.8 (and .loc.7 (and .def_492 (and .def_326 (and .def_321 (and .def_489 (and .def_486 (and .def_483 (and .def_480 (and .def_477 (and .def_323 (and .def_474 (and .def_471 (and .def_277 (and .def_469 (and .def_272 (and .def_466 (and .def_463 (and .def_460 (and .def_457 (and .def_454 (and .def_451 (and .def_449 (and .def_447 (and .def_274 (and .def_444 (and .def_424 (and .def_426 (and .def_428 (and .def_429 (and .def_431 (and .def_433 (and .def_436 (and .def_434 (and K2_3 .x.698))))))))))))))))))))))))))))))))))))))))))))))))))) (and (or K2_3 (= (+ R_3 (* (- 1) .x.647)) 1)) (and .def_386 (and .def_236 (and .def_234 (and .def_231 (and .def_228 (and .def_225 (and .def_223 (and .def_89 (and .def_334 (and .def_331 (and .loc.14 (and .loc.11 (and .def_85 (and .def_197 (and .def_83 (and .loc.9 (and .def_193 (and .def_492 (and .def_191 (and .def_326 (and .def_188 (and .def_321 (and .def_185 (and .def_489 (and .def_486 (and .def_483 (and .def_480 (and .def_477 (and .def_182 (and .def_179 (and .def_176 (and .def_323 (and .def_474 (and .def_173 (and .def_471 (and .def_277 (and .def_170 (and .def_469 (and .def_272 (and .def_167 (and .def_466 (and .def_463 (and .def_164 (and .def_161 (and .def_158 (and .def_155 (and .def_152 (and .def_460 (and .def_457 (and .def_454 .def_1364)))))))))))))))))))))))))))))))))))))))))))))))))))) (and (and (or .x.698 (and .def_1567 .def_1569)) (and .def_386 (and .def_316 (and .def_236 (and .def_234 (and .def_231 (and .def_228 (and .def_225 (and .def_223 (and .def_89 (and .def_334 (and .def_331 (and .loc.14 (and .def_87 (and .loc.8 (and .loc.7 (and .loc.6 (and .def_193 (and .def_492 (and .def_191 (and .def_326 (and .def_188 (and .def_321 (and .def_185 (and .def_486 (and .def_483 (and .def_480 (and .def_477 (and .def_182 (and .def_179 (and .def_176 (and .def_323 (and .def_474 (and .def_173 (and .def_471 (and .def_277 (and .def_170 (and .def_469 (and .def_272 (and .def_167 (and .def_466 (and .def_463 (and .def_164 (and .def_161 (and .def_158 (and .def_155 (and .def_152 (and .def_460 (and .def_457 (and .def_454 (and .def_149 (and .def_449 (and .def_146 (and .def_447 (and .def_274 (and .def_444 .def_659)))))))))))))))))))))))))))))))))))))))))))))))))))))))) .def_1631)) (and (or .x.698 (not .def_1567)) (and .def_1631 (and .def_386 (and .def_316 (and .def_236 (and .def_234 (and .def_231 (and .def_228 (and .def_225 (and .def_223 (and .def_89 (and .def_334 (and .def_331 (and .loc.14 (and .def_87 (and .loc.8 (and .loc.7 (and .loc.6 (and .def_193 (and .def_492 (and .def_191 (and .def_326 (and .def_188 (and .def_321 (and .def_185 .def_1053)))))))))))))))))))))))))) (and (or K2_3 (not A2_3)) (and .def_386 (and .def_236 (and .def_234 (and .def_231 (and .def_228 (and .def_225 (and .def_223 (and .def_89 (and .def_337 (and .loc.13 (and .loc.12 (and .loc.11 (and .def_87 (and .def_83 (and .loc.8 (and .loc.7 .def_1686)))))))))))))))))) (and .def_386 (and .def_236 (and .def_234 (and .def_231 (and .def_228 (and .def_225 (and .def_223 (and .def_89 (and .def_337 (and .loc.13 (and .loc.12 (and .loc.11 (and .def_87 (and .def_197 (and .loc.8 .def_637)))))))))))))))) (and (or K2_3 (and (= .x.688 .def_1721) .def_1723)) (and (or .x.698 .x.688) (and .def_386 (and .def_316 (and .def_236 (and .def_234 (and .def_231 (and .def_228 (and .def_225 (and .def_223 (and .def_89 (and .def_337 (and .loc.13 (and .loc.12 (and .def_87 (and .def_197 (and .loc.8 (and .loc.6 (and .def_193 (and .def_191 (and .def_326 (and .def_188 (and .def_321 (and .def_185 (and .def_489 .def_1052)))))))))))))))))))))))))) (and (or K2_3 (and .def_1723 (= L2_21 .def_1721))) (and (or .x.698 (and (= .x.669 (select .def_345 (+ .x.660 .x.658))) (and .def_1329 (= .x.688 (= .x.669 9))))) (and .def_386 (and .def_316 (and .def_236 (and .def_234 (and .def_231 (and .def_228 (and .def_225 (and .def_223 (and .def_89 (and .def_337 (and .loc.13 (and .loc.12 (and .def_87 (and .def_197 (and .loc.8 (and .loc.6 .def_1686))))))))))))))))))) (and (or K2_3 (and A2_3 .def_1569)) (and .def_386 (and .def_236 (and .def_234 (and .def_231 (and .def_228 (and .def_225 (and .def_223 (and .def_89 (and .def_337 (and .def_331 (and .loc.13 (and .loc.11 (and .def_87 (and .def_83 (and .loc.8 (and .loc.7 (and .def_193 (and .def_191 (and .def_326 (and .def_188 (and .def_321 (and .def_185 (and .def_489 (and .def_483 (and .def_480 (and .def_182 (and .def_179 (and .def_176 (and .def_323 (and .def_474 (and .def_173 (and .def_471 (and .def_277 (and .def_170 (and .def_469 (and .def_272 (and .def_167 (and .def_466 (and .def_164 (and .def_161 (and .def_158 (and .def_155 (and .def_152 (and .def_460 (and .def_457 (and .def_454 .def_666)))))))))))))))))))))))))))))))))))))))))))))))) (and (or S1_3 K2_3) (and .def_386 (and .def_236 (and .def_234 (and .def_231 (and .def_228 (and .def_225 (and .def_223 (and .def_89 (and .def_337 (and .def_331 (and .loc.13 .def_1066)))))))))))))))))))))))))))))))))))))))))))))))))))))))))))))))))))))))))))))))))))))))))))))))))))))))))))))))))))))))))))))))))))))))))))))))))))))) (state |.x.636| |.x.637| |.x.638| |.x.639| |.x.640| |.x.641| |.x.642| |.x.643| |.x.644| |.x.645| |.x.646| |.x.647| |.x.648| |.x.649| |.x.650| |.x.651| |.x.652| |.x.653| |.x.654| |.x.655| |.x.656| |.x.657| |.x.658| |.x.659| |.x.660| |.x.661| |.x.662| |.x.663| |.x.664| |.x.665| |.x.666| |.x.667| |.x.668| |.x.669| |.x.670| |.x.671| |.x.672| |.x.673| |.x.674| |.x.675| |.x.676| |.x.677| |.x.678| |.x.679| |.x.680| |.x.681| |.x.682| |.x.683| |.x.684| |.x.685| |.x.686| |.x.687| |.x.688| |.x.689| |.x.690| |.x.691| |.x.692| |.x.693| |.x.694| |.x.695| |.x.696| |.x.697| |.x.698| |.loc.11| |.loc.12| |.loc.13| |.loc.14| |.loc.15| |.xtv.1| |.xtv.2| |.xtv.3| |.xtv.4| |.xtv.5|))))
(assert (forall ((|A_3| Int) (|L2_2| (Array Int Int)) (|C_3| (Array Int Int)) (|D_3| (Array Int Int)) (|E_3| (Array Int Int)) (|F_3| Int) (|G_3| Int) (|H_3| (Array Int Int)) (|I_3| (Array Int Int)) (|J_3| Int) (|K_3| Int) (|L_3| Int) (|M_3| Int) (|N_3| Int) (|O_3| Int) (|P_3| Int) (|Q_3| Int) (|R_3| Int) (|M2_2| Int) (|T_3| Int) (|U_3| Bool) (|V_3| Int) (|W_3| Int) (|X_3| Int) (|Y_3| Int) (|Z_3| Int) (|A1_3| Bool) (|B1_3| Int) (|C1_3| Int) (|D1_3| Int) (|E1_3| Int) (|F1_3| Int) (|G1_3| Int) (|H1_3| Int) (|I1_3| Int) (|J1_3| Int) (|K1_3| Int) (|L1_3| Int) (|M1_3| Int) (|N1_3| Int) (|N2_2| Int) (|P1_3| Int) (|Q1_3| Int) (|R1_3| Int) (|S1_3| Bool) (|O2_1| Int) (|U1_3| Int) (|V1_3| Int) (|W1_3| Int) (|X1_3| Int) (|Y1_3| Int) (|Z1_3| Bool) (|A2_3| Bool) (|B2_3| Int) (|P2_0| Int) (|D2_3| Int) (|E2_3| Int) (|F2_3| Int) (|G2_3| Int) (|H2_3| Int) (|I2_3| Int) (|J2_3| Int) (|K2_3| Bool) (|.loc.6| Bool) (|.loc.7| Bool) (|.loc.8| Bool) (|.loc.9| Bool) (|.loc.10| Bool) (|L2_21| Bool) (|O2_0| Int) (|L2_0| (Array Int Int)) (|L2_15| Int) (|L2_1| (Array Int Int)) (|.x.646| Int) (|.x.644| (Array Int Int)) (|.x.642| Int) (|.x.640| (Array Int Int)) (|.x.636| Int) (|.x.638| (Array Int Int)) (|.x.690| Int) (|.x.692| Int) (|.x.698| Bool) (|.x.637| (Array Int Int)) (|.x.650| Int) (|.x.651| Int) (|.x.657| Int) (|.x.659| Int) (|.x.664| Int) (|.x.665| Int) (|.x.666| Int) (|.x.667| Int) (|.x.668| Int) (|.x.671| Int) (|.x.674| Int) (|.x.678| Int) (|.x.682| Int) (|.x.683| Int) (|.x.684| Int) (|.x.691| Int) (|.x.694| Int) (|.x.696| Int) (|.x.660| Int) (|.x.647| Int) (|.x.681| Int) (|.x.676| Int) (|.x.654| Int) (|.x.672| Int) (|.x.655| Int) (|.x.675| Int) (|.loc.11| Bool) (|.x.693| Int) (|.x.680| Bool) (|.x.695| Int) (|.loc.15| Bool) (|.loc.12| Bool) (|.loc.13| Bool) (|.loc.14| Bool) (|.x.653| Int) (|.x.658| Int) (|.x.639| (Array Int Int)) (|.x.677| Int) (|.x.652| Int) (|.x.649| Int) (|.x.648| Int) (|.x.645| Int) (|.x.643| (Array Int Int)) (|.x.641| Int) (|.x.656| Bool) (|.x.661| Int) (|.x.662| Bool) (|.x.663| Int) (|.x.669| Int) (|.x.670| Int) (|.x.673| Int) (|.x.679| Int) (|.x.685| Int) (|.x.686| Int) (|.x.687| Bool) (|.x.688| Bool) (|.x.689| Int) (|.x.697| Int) (|.xtv.1| Bool) (|.xtv.2| Int) (|.xtv.3| (Array Int Int)) (|.xtv.4| Int) (|.xtv.5| (Array Int Int))) (=> (state |A_3| |L2_2| |C_3| |D_3| |E_3| |F_3| |G_3| |H_3| |I_3| |J_3| |K_3| |L_3| |M_3| |N_3| |O_3| |P_3| |Q_3| |R_3| |M2_2| |T_3| |U_3| |V_3| |W_3| |X_3| |Y_3| |Z_3| |A1_3| |B1_3| |C1_3| |D1_3| |E1_3| |F1_3| |G1_3| |H1_3| |I1_3| |J1_3| |K1_3| |L1_3| |M1_3| |N1_3| |N2_2| |P1_3| |Q1_3| |R1_3| |S1_3| |O2_1| |U1_3| |V1_3| |W1_3| |X1_3| |Y1_3| |Z1_3| |A2_3| |B2_3| |P2_0| |D2_3| |E2_3| |F2_3| |G2_3| |H2_3| |I2_3| |J2_3| |K2_3| |.loc.6| |.loc.7| |.loc.8| |.loc.9| |.loc.10| |L2_21| |O2_0| |L2_0| |L2_15| |L2_1|) (not (and K2_3 (and .loc.10 (and (not .loc.9) (and (not .loc.8) (and .loc.6 (not .loc.7))))))))))
(check-sat)
